LAMMPS (22 Jul 2025 - Update 4)
OMP_NUM_THREADS environment is not set. Defaulting to 1 thread.
  using 1 OpenMP thread(s) per MPI task
Loaded 1 plugins from C:\Users\Alex\AppData\Local\LAMMPS 64-bit 22Jul2025-MSMPI\plugins
clear
OMP_NUM_THREADS environment is not set. Defaulting to 1 thread.
  using 1 OpenMP thread(s) per MPI task
Restoring plugin: Hello world command v1.1 by Axel Kohlmeyer (akohlmey@gmail.com)
WARNING: Overriding built-in command style hello from plugin (src/PLUGIN/plugin.cpp:556)
Loaded 1 plugins from C:\Users\Alex\AppData\Local\LAMMPS 64-bit 22Jul2025-MSMPI\plugins

units                   metal
dimension               3
boundary                f p p
atom_style              full

#Shock calculations for 30nm - 10nm particle

#N = 781539                 28953
#M = 6.212e-20 (47.867)     2.301e-21
#d = 3e-8                   1e-8

#U = 1421
#P = 1.96e7
#T = 1500

#MFP = 1.79e-9
#mu_N2 = 5.45e-5 (1500K)
#Kn = 0.0598                0.179
#C_cunn = 1.15              1.46

#tau = M/(3 mu pi d)
#tau = 4.03e-9              4.48e-10
#tau_corr = 4.64e-9         6.54e-10

#Time to reach:
#50% vel (0.693 tau) = 3.21e-9                  4.53e-10
#70% vel (1.20 tau) = 5.58e-9 (about 1000ms^-1) 7.87e-10
#90% vel (2.30 tau) = 10.7e-9                   15.1e-10

#Distance between shock front and piston (post_shock_req):
#50% vel = 3.29e-6                              4.65e-7
#70% vel = 4.61e-6                              6.51e-7
#90% vel = 5.93e-6                              8.36e-7
#terminal vel = 6.59e-6 (particle never reaches piston)     9.29e-7


#Distance shock front moves (1691.7 ms^-1)
#50% vel = 54300 Ang                    7660 Ang
#70% vel = 94400 Ang                    13300 Ang
#90% vel = 181000 Ang                   25500 Ang

#Moves 8000 Ang in 4.73e-10

#Current shock sizes:
#dimensions = 256x256
#piston at = 12789 Ang
#post-shock = 13400 - 15800 Ang (2400)
#post-shock copyable = 13700-15700 Ang (2000)
#pre-shock = 17500-24000 Ang (6500)


#Running in full:
#400ps:
#vel = 117.5
#post-shock req = 5500 Ang
#shock moves = 6800 Ang


# ----------------------------
# Force field
# ----------------------------


pair_style              hybrid eam/fs lj/cut 15.0
bond_style		        harmonic

read_data               N2_Shock/data/shock_ready_Ti_100_400ps.moldata #---------------------------------------------------------------------CHANGE
Reading data file ...
  orthogonal box = (0 -25 -25) to (33200 281 281)
  5 by 1 by 1 MPI processor grid
  reading atoms ...
  1336467 atoms
  reading velocities ...
  1336467 velocities
  scanning bonds ...
  1 = max bonds/atom
  orthogonal box = (0 -25 -25) to (33200 281 281)
  5 by 1 by 1 MPI processor grid
  reading bonds ...
  653757 bonds
Finding 1-2 1-3 1-4 neighbors ...
  special bond factors lj:    0        0        0       
  special bond factors coul:  0        0        0       
     1 = max # of 1-2 neighbors
     0 = max # of 1-3 neighbors
     0 = max # of 1-4 neighbors
     1 = max # of special neighbors
  special bonds CPU = 0.194 seconds
  read_data CPU = 19.045 seconds
reset_timestep          400000

#read_restart            N2_Shock/restart/combined_Ti_300_0ps.restart

pair_style              hybrid eam/fs lj/cut 15.0
bond_style		        harmonic

pair_coeff              * * eam/fs Ti-N2/Ti1.eam.fs NULL Ti# taken from: https://www.ctcms.nist.gov/potentials/entry/2016--Mendelev-M-I-Underwood-T-L-Ackland-G-J--Ti-1/
pair_coeff              1 1 lj/cut 0.0032 3.29
pair_coeff              1 2 lj/cut 0.00898 2.745


bond_coeff		        1 71.594 1.0977 #updated units to metal
special_bonds           lj/coul 0.0 0.0 1.0
Finding 1-2 1-3 1-4 neighbors ...
  special bond factors lj:    0        0        1       
  special bond factors coul:  0        0        1       
     1 = max # of 1-2 neighbors
     0 = max # of 1-3 neighbors
     1 = max # of special neighbors
  special bonds CPU = 0.170 seconds


# ----------------------------
# Simulation parameters
# ----------------------------

variable                dt equal 0.001

timestep ${dt}
timestep 0.001

lattice                 hcp 2.94653
Lattice spacing in x,y,z = 2.94653 5.1035397 4.8116633

group                   nitrogen type 1
1307514 atoms in group nitrogen
group                   titanium type 2
28953 atoms in group titanium

# ----------------------------
# Diagnostics
# ----------------------------

log                     N2_Shock/logs/shock_Ti_100.log append
