Authorization required, but no authorization protocol specified

Authorization required, but no authorization protocol specified

Authorization required, but no authorization protocol specified

Authorization required, but no authorization protocol specified

Authorization required, but no authorization protocol specified

Authorization required, but no authorization protocol specified

Authorization required, but no authorization protocol specified

Authorization required, but no authorization protocol specified

Authorization required, but no authorization protocol specified

Authorization required, but no authorization protocol specified

Authorization required, but no authorization protocol specified

Authorization required, but no authorization protocol specified

Authorization required, but no authorization protocol specified

Authorization required, but no authorization protocol specified

Authorization required, but no authorization protocol specified

Authorization required, but no authorization protocol specified

Authorization required, but no authorization protocol specified

Authorization required, but no authorization protocol specified

Authorization required, but no authorization protocol specified

Authorization required, but no authorization protocol specified

Authorization required, but no authorization protocol specified

Authorization required, but no authorization protocol specified

Authorization required, but no authorization protocol specified

Authorization required, but no authorization protocol specified

Authorization required, but no authorization protocol specified

Authorization required, but no authorization protocol specified

LAMMPS (30 Mar 2026 - Development - patch_30Mar2026-1985-gadc429695f)
  using 1 OpenMP thread(s) per MPI task
  using 1 OpenMP thread(s) per MPI task
Lattice spacing in x,y,z = 2.94653 5.1035397 4.8116633
Created orthogonal box = (-450 -450 -450) to (450 450 450)
  2 by 3 by 4 MPI processor grid
Created 781539 atoms
  using lattice units in orthogonal box = (-450 -450 -450) to (450 450 450)
  create_atoms CPU = 0.085 seconds
Neighbor list info ...
  update: every = 1 steps, delay = 0 steps, check = yes
  max neighbors/atom: 2000, page size: 100000
  master list distance cutoff = 17
  ghost atom cutoff = 17
  binsize = 8.5, bins = 106 106 106
  3 neighbor lists, perpetual/occasional/extra = 3 0 0
  (1) pair eam/fs, perpetual, skip from (3)
      attributes: half, newton on
      pair build: skip
      stencil: none
      bin: none
  (2) pair lj/cut, perpetual, skip from (3)
      attributes: half, newton on
      pair build: skip
      stencil: none
      bin: none
  (3) neighbor class addition, perpetual
      attributes: half, newton on
      pair build: half/bin/newton
      stencil: half/bin/3d
      bin: standard
Setting up cg style minimization ...
  Unit style    : metal
  Current step  : 0
Per MPI rank memory allocation (min/avg/max) = 11.9 | 51.41 | 249.4 Mbytes
   Step         TotEng         KinEng         PotEng        Density          Temp          Press          Volume           Lx      
         0  -4144158.6      0             -4144158.6      0.085213498    0             -351.71447      7.29e+08       900          
       995  -4149093        0             -4149093        0.085213498    0             -0.015936678    7.29e+08       900          
Loop time of 1065.02 on 24 procs for 995 steps with 781539 atoms

99.9% CPU use with 24 MPI tasks x 1 OpenMP threads

Minimization stats:
  Stopping criterion = energy tolerance
  Energy initial, next-to-last, final = 
     -4144158.57577025  -4149093.02885922  -4149093.02886336
  Force two-norm initial, final = 83.691615 0.0073326339
  Force max component initial, final = 0.71398613 0.00037975055
  Final line search alpha, max atom move = 1 0.00037975055
  Iterations, force evaluations = 995 1565

MPI task timing breakdown:
Section |  min time  |  avg time  |  max time  |%varavg| %total
---------------------------------------------------------------
Pair    | 1029       | 1042.9     | 1046.2     |  18.6 | 97.92
Bond    | 0.00028405 | 0.00040999 | 0.00049752 |   0.0 |  0.00
Neigh   | 0.00047631 | 2.0329     | 12.766     | 319.0 |  0.19
Comm    | 5.0365     | 7.0917     | 11.673     |  65.8 |  0.67
Output  | 0          | 0          | 0          |   0.0 |  0.00
Modify  | 0          | 0          | 0          |   0.0 |  0.00
Other   |            | 12.99      |            |       |  1.22

Nlocal:        32564.1 ave      195456 max           0 min
Histogram: 20 0 0 0 0 0 0 0 0 4
Nghost:        13344.4 ave       73187 max           0 min
Histogram: 20 0 0 0 0 0 0 0 0 4
Neighs:              0 ave           0 max           0 min
Histogram: 24 0 0 0 0 0 0 0 0 0

Total # of neighbors = 0
Ave neighs/atom = 0
Ave special neighs/atom = 0
Neighbor list builds = 5
Dangerous builds = 0
Setting up Verlet run ...
  Unit style    : metal
  Current step  : 995
  Time step     : 0.005
Per MPI rank memory allocation (min/avg/max) = 73.62 | 114 | 299.2 Mbytes
   Step         TotEng         KinEng         PotEng        Density          Temp          Press          Volume           Lx      
       995  -4118786.5      30306.515     -4149093        0.085213498    300            44.388622      7.29e+08       900          
      1000  -4118604.1      15288.074     -4133892.2      0.085213498    151.33453      54.561815      7.29e+08       900          
      2000  -4090904.5      30420.3       -4121324.8      0.085213498    301.12634      25.674495      7.29e+08       900          
      3000  -4090936.5      30362.72      -4121299.2      0.085213498    300.55637      20.736309      7.29e+08       900          
      4000  -4090992.4      30410.489     -4121402.9      0.085213498    301.02923      13.226638      7.29e+08       900          
      5000  -4091058        30351.878     -4121409.9      0.085213498    300.44905      9.0845155      7.29e+08       900          
      6000  -4091090.9      30353.383     -4121444.3      0.085213498    300.46395      7.5422714      7.29e+08       900          
      7000  -4091117.8      30272.202     -4121390        0.085213498    299.66035      4.6821069      7.29e+08       900          
      8000  -4091140.6      30276.119     -4121416.7      0.085213498    299.69912      2.5470863      7.29e+08       900          
      9000  -4091151        30264.852     -4121415.9      0.085213498    299.58759     -1.9386978      7.29e+08       900          
     10000  -4091123.5      30320.892     -4121444.4      0.085213498    300.14232     -4.0532391      7.29e+08       900          
     11000  -4091101.1      30267.408     -4121368.5      0.085213498    299.61289     -8.6042817      7.29e+08       900          
     12000  -4091039.5      30331.147     -4121370.7      0.085213498    300.24383     -9.7310537      7.29e+08       900          
     13000  -4091093.5      30306.165     -4121399.6      0.085213498    299.99654     -10.700706      7.29e+08       900          
     14000  -4091056.2      30304.968     -4121361.2      0.085213498    299.98469     -10.481928      7.29e+08       900          
     15000  -4091117.2      30256.764     -4121373.9      0.085213498    299.50752     -11.555058      7.29e+08       900          
     16000  -4091113.9      30307.294     -4121421.2      0.085213498    300.00772     -12.230108      7.29e+08       900          
     17000  -4091103.4      30292.069     -4121395.5      0.085213498    299.85701     -14.908272      7.29e+08       900          
     18000  -4090993        30334.33      -4121327.3      0.085213498    300.27534     -15.986576      7.29e+08       900          
     19000  -4091106.3      30297.53      -4121403.8      0.085213498    299.91106     -14.840501      7.29e+08       900          
     20000  -4091080.5      30313.007     -4121393.5      0.085213498    300.06427     -13.443674      7.29e+08       900          
     21000  -4091081.2      30313.509     -4121394.8      0.085213498    300.06923     -11.403737      7.29e+08       900          
     22000  -4091130.9      30310.92      -4121441.8      0.085213498    300.04361     -10.191533      7.29e+08       900          
     23000  -4091074.6      30338.846     -4121413.4      0.085213498    300.32005     -8.1515664      7.29e+08       900          
     24000  -4091098.8      30283.528     -4121382.3      0.085213498    299.77246     -8.91022        7.29e+08       900          
     25000  -4091083.2      30311.362     -4121394.6      0.085213498    300.04799     -7.6155949      7.29e+08       900          
     26000  -4091111.1      30328.461     -4121439.6      0.085213498    300.21724     -7.5867459      7.29e+08       900          
     27000  -4091104        30326.469     -4121430.5      0.085213498    300.19753     -4.4771427      7.29e+08       900          
     28000  -4091186.8      30284.579     -4121471.4      0.085213498    299.78286     -2.2774013      7.29e+08       900          
     29000  -4091124.6      30333.164     -4121457.8      0.085213498    300.2638      -1.6808551      7.29e+08       900          
     30000  -4091123.1      30323.778     -4121446.9      0.085213498    300.17089     -0.31094381     7.29e+08       900          
     31000  -4091123.3      30297.616     -4121420.9      0.085213498    299.91192      0.14972029     7.29e+08       900          
     32000  -4091119.6      30297.986     -4121417.6      0.085213498    299.91558     -0.010240823    7.29e+08       900          
     33000  -4091076.3      30289.667     -4121365.9      0.085213498    299.83322      0.73499346     7.29e+08       900          
     34000  -4091174.8      30289.819     -4121464.6      0.085213498    299.83474      2.3245425      7.29e+08       900          
     35000  -4091139.7      30308.453     -4121448.2      0.085213498    300.01919      2.1814356      7.29e+08       900          
     36000  -4091142.6      30284.812     -4121427.4      0.085213498    299.78517      3.8836317      7.29e+08       900          
     37000  -4091134.3      30316.8       -4121451.1      0.085213498    300.10182      4.5836146      7.29e+08       900          
     38000  -4091142.9      30327.629     -4121470.6      0.085213498    300.209        3.3036897      7.29e+08       900          
     39000  -4091112.6      30316.242     -4121428.9      0.085213498    300.09629      6.1857842      7.29e+08       900          
     40000  -4091122        30314.193     -4121436.2      0.085213498    300.07601      4.9758163      7.29e+08       900          
     41000  -4091154.7      30269.622     -4121424.3      0.085213498    299.63481      3.6662015      7.29e+08       900          
     42000  -4091098.7      30322.492     -4121421.2      0.085213498    300.15815      3.6642157      7.29e+08       900          
     43000  -4091192.9      30271.995     -4121464.9      0.085213498    299.65829      5.1224821      7.29e+08       900          
     44000  -4091110.3      30297.721     -4121408        0.085213498    299.91295      3.2107992      7.29e+08       900          
     45000  -4091153.6      30305.381     -4121459        0.085213498    299.98878      2.8773496      7.29e+08       900          
     46000  -4091162.5      30313.014     -4121475.5      0.085213498    300.06434      3.3676916      7.29e+08       900          
     47000  -4091163.1      30323.989     -4121487.1      0.085213498    300.17298      2.7904927      7.29e+08       900          
     48000  -4091115.7      30291.8       -4121407.5      0.085213498    299.85434      2.8950197      7.29e+08       900          
     49000  -4091119.9      30289.648     -4121409.5      0.085213498    299.83304      1.4834429      7.29e+08       900          
     50000  -4091129.7      30347.967     -4121477.7      0.085213498    300.41034      0.053992648    7.29e+08       900          
     50995  -4091122.5      30317.102     -4121439.6      0.085213498    300.1048       2.2764233      7.29e+08       900          
Loop time of 8059.19 on 24 procs for 50000 steps with 781539 atoms

Performance: 2.680 ns/day, 8.955 hours/ns, 6.204 timesteps/s, 4.849 Matom-step/s
99.4% CPU use with 24 MPI tasks x 1 OpenMP threads

MPI task timing breakdown:
Section |  min time  |  avg time  |  max time  |%varavg| %total
---------------------------------------------------------------
Pair    | 6559.9     | 6671.9     | 6796.6     |  75.9 | 82.79
Bond    | 0.0092322  | 0.013965   | 0.017528   |   1.6 |  0.00
Neigh   | 622.41     | 784.04     | 906.42     | 278.1 |  9.73
Comm    | 265.77     | 475.9      | 750.09     | 540.1 |  5.91
Output  | 0.74314    | 0.82769    | 0.91709    |   5.6 |  0.01
Modify  | 63.24      | 74.479     | 88.467     |  83.3 |  0.92
Other   |            | 52.01      |            |       |  0.65

Nlocal:        32564.1 ave       33139 max       31569 min
Histogram: 2 1 1 0 1 5 2 4 4 4
Nghost:        40928.4 ave       52336 max       33002 min
Histogram: 8 0 7 0 0 1 0 0 0 8
Neighs:              0 ave           0 max           0 min
Histogram: 24 0 0 0 0 0 0 0 0 0

Total # of neighbors = 0
Ave neighs/atom = 0
Ave special neighs/atom = 0
Neighbor list builds = 1693
Dangerous builds = 0
Finding 1-2 1-3 1-4 neighbors ...
  special bond factors lj:    0        0        1       
  special bond factors coul:  0        0        1       
     0 = max # of 1-2 neighbors
     0 = max # of 1-3 neighbors
     1 = max # of special neighbors
  special bonds CPU = 0.018 seconds
Read molecule template N2molecule:
# Molecule file for Nitrogen
  1 molecules
  0 fragments
  0 bodies
  2 atoms with max type 2
  1 bonds with max type 1
  0 angles with max type 0
  0 dihedrals with max type 0
  0 impropers with max type 0
Created 241628 atoms
  using lattice units in orthogonal box = (-450 -450 -450) to (450 450 450)
  create_atoms CPU = 584.165 seconds
781539 atoms in group titanium
241628 atoms in group nitrogen
WARNING: Using a manybody potential with bonds/angles/dihedrals and special_bond exclusions (src/pair.cpp:253)
WARNING: Fix recenter should come after all other integration fixes (src/fix_recenter.cpp:130)
Setting up Verlet run ...
  Unit style    : metal
  Current step  : 50995
  Time step     : 0.001
Per MPI rank memory allocation (min/avg/max) = 79.45 | 131.1 | 306.1 Mbytes
   Step         TotEng         KinEng         PotEng        Density          Temp          Press          Volume           Lx      
     50995  -4081763.6      39686.924     -4121450.5      0.09292278     300.07976      15.957501      7.29e+08       900          
     51000  -4081712        38723.884     -4120435.9      0.09292278     292.79804      6.1495771      7.29e+08       900          
     52000  -4080652.7      39340.96      -4119993.6      0.09292278     297.46387      6.0620778      7.29e+08       900          
     53000  -4080787        40235.739     -4121022.7      0.09292278     304.22945      11.649198      7.29e+08       900          
     54000  -4080729.9      39141.896     -4119871.8      0.09292278     295.95871      2.6460005      7.29e+08       900          
     55000  -4080706.5      39937.324     -4120643.8      0.09292278     301.97307      5.0072384      7.29e+08       900          
     56000  -4080630.9      39679.252     -4120310.2      0.09292278     300.02175      12.635848      7.29e+08       900          
     57000  -4080683.9      39571.542     -4120255.4      0.09292278     299.20733      8.1575042      7.29e+08       900          
     58000  -4080763.2      39855.258     -4120618.5      0.09292278     301.35256      6.9451865      7.29e+08       900          
     59000  -4080712.7      39426.741     -4120139.5      0.09292278     298.11247      3.9488817      7.29e+08       900          
     60000  -4080693.4      39883.005     -4120576.4      0.09292278     301.56236      6.1185364      7.29e+08       900          
     61000  -4080685.9      39544.933     -4120230.8      0.09292278     299.00614      7.2970943      7.29e+08       900          
     62000  -4080783.6      39698.886     -4120482.5      0.09292278     300.17021      9.9424256      7.29e+08       900          
     63000  -4080829        39604.836     -4120433.8      0.09292278     299.45907      8.2888379      7.29e+08       900          
     64000  -4080768.2      39580.42      -4120348.6      0.09292278     299.27446      4.0742314      7.29e+08       900          
     65000  -4080732.9      39764.629     -4120497.6      0.09292278     300.6673       5.854413       7.29e+08       900          
     66000  -4080742.3      39551.97      -4120294.3      0.09292278     299.05934      6.7253464      7.29e+08       900          
     67000  -4080691.3      39774.981     -4120466.2      0.09292278     300.74557      9.0906738      7.29e+08       900          
     68000  -4080715.9      39600.684     -4120316.5      0.09292278     299.42768      7.0392929      7.29e+08       900          
     69000  -4080750.9      39659.884     -4120410.8      0.09292278     299.8753       6.1633265      7.29e+08       900          
     70000  -4080740.2      39692.11      -4120432.3      0.09292278     300.11897      4.9099184      7.29e+08       900          
     71000  -4080735.8      39661.317     -4120397.1      0.09292278     299.88614      5.1872749      7.29e+08       900          
     72000  -4080725.1      39751.304     -4120476.4      0.09292278     300.56654      11.063555      7.29e+08       900          
     73000  -4080771.9      39537.62      -4120309.5      0.09292278     298.95084      7.9575098      7.29e+08       900          
     74000  -4080637        39794.427     -4120431.4      0.09292278     300.8926       6.9629331      7.29e+08       900          
     75000  -4080701.6      39629.771     -4120331.3      0.09292278     299.64761      4.3033523      7.29e+08       900          
     76000  -4080780.9      39659.986     -4120440.9      0.09292278     299.87607      6.6983836      7.29e+08       900          
     77000  -4080782.8      39678.33      -4120461.1      0.09292278     300.01478      7.6509034      7.29e+08       900          
     78000  -4080781        39630.704     -4120411.7      0.09292278     299.65467      8.3554778      7.29e+08       900          
     79000  -4080679.8      39747.83      -4120427.6      0.09292278     300.54028      8.0834956      7.29e+08       900          
     80000  -4080756.1      39616.486     -4120372.6      0.09292278     299.54717      3.7428415      7.29e+08       900          
     81000  -4080791        39670.409     -4120461.4      0.09292278     299.95488      4.6521716      7.29e+08       900          
     82000  -4080774.4      39641.838     -4120416.3      0.09292278     299.73885      8.2342187      7.29e+08       900          
     83000  -4080703.3      39722.605     -4120425.9      0.09292278     300.34955      8.4443636      7.29e+08       900          
     84000  -4080741.3      39677.805     -4120419.1      0.09292278     300.01081      6.4907198      7.29e+08       900          
     85000  -4080755.4      39654.771     -4120410.2      0.09292278     299.83664      5.696351       7.29e+08       900          
     86000  -4080827.1      39644.117     -4120471.2      0.09292278     299.75609      5.6601239      7.29e+08       900          
     87000  -4080716.6      39666.185     -4120382.8      0.09292278     299.92295      8.4461807      7.29e+08       900          
     88000  -4080748.1      39674.613     -4120422.7      0.09292278     299.98667      10.089133      7.29e+08       900          
     89000  -4080804.3      39609.123     -4120413.4      0.09292278     299.49149      6.8852052      7.29e+08       900          
     90000  -4080764.5      39663.962     -4120428.5      0.09292278     299.90614      6.443852       7.29e+08       900          
     91000  -4080789        39643.075     -4120432.1      0.09292278     299.74821      7.7003872      7.29e+08       900          
     92000  -4080729.8      39688.288     -4120418.1      0.09292278     300.09007      7.3573445      7.29e+08       900          
     93000  -4080755.7      39690.161     -4120445.9      0.09292278     300.10423      7.8096747      7.29e+08       900          
     94000  -4080771.7      39650.049     -4120421.8      0.09292278     299.80094      7.4624184      7.29e+08       900          
     95000  -4080737.6      39690.544     -4120428.1      0.09292278     300.10713      6.3994761      7.29e+08       900          
     96000  -4080743.5      39636.974     -4120380.4      0.09292278     299.70208      6.11673        7.29e+08       900          
     97000  -4080764.9      39694.956     -4120459.8      0.09292278     300.14049      7.5713399      7.29e+08       900          
     98000  -4080766.9      39679.045     -4120446        0.09292278     300.02018      7.9747773      7.29e+08       900          
     99000  -4080745.3      39661.027     -4120406.3      0.09292278     299.88395      7.2047929      7.29e+08       900          
    100000  -4080781.6      39647.306     -4120428.9      0.09292278     299.7802       6.784797       7.29e+08       900          
    101000  -4080742        39673.471     -4120415.5      0.09292278     299.97804      7.527244       7.29e+08       900          
    102000  -4080721        39717.471     -4120438.5      0.09292278     300.31073      6.0853724      7.29e+08       900          
    103000  -4080692.8      39676.889     -4120369.7      0.09292278     300.00388      8.257665       7.29e+08       900          
    104000  -4080758.3      39680.63      -4120438.9      0.09292278     300.03216      8.8902194      7.29e+08       900          
    105000  -4080791.7      39667.536     -4120459.2      0.09292278     299.93316      6.0684568      7.29e+08       900          
    106000  -4080748.2      39696.13      -4120444.3      0.09292278     300.14937      6.1995412      7.29e+08       900          
    107000  -4080736.3      39704.206     -4120440.5      0.09292278     300.21043      6.9924085      7.29e+08       900          
    108000  -4080732.1      39680.057     -4120412.1      0.09292278     300.02784      9.0782237      7.29e+08       900          
    109000  -4080767.7      39709.75      -4120477.4      0.09292278     300.25235      7.4451507      7.29e+08       900          
    110000  -4080785.8      39676.265     -4120462.1      0.09292278     299.99916      6.4679689      7.29e+08       900          
    111000  -4080756.1      39659.958     -4120416        0.09292278     299.87586      6.8477987      7.29e+08       900          
    112000  -4080717.5      39666.148     -4120383.7      0.09292278     299.92267      7.1419753      7.29e+08       900          
    113000  -4080808        39616.817     -4120424.8      0.09292278     299.54966      7.2714926      7.29e+08       900          
    114000  -4080789.1      39649.043     -4120438.2      0.09292278     299.79334      8.5262451      7.29e+08       900          
    115000  -4080672.2      39752.232     -4120424.4      0.09292278     300.57357      7.3387312      7.29e+08       900          
    116000  -4080714.6      39707.08      -4120421.7      0.09292278     300.23216      5.7775971      7.29e+08       900          
    117000  -4080789.8      39641.894     -4120431.7      0.09292278     299.73928      6.5532587      7.29e+08       900          
    118000  -4080744.1      39665.389     -4120409.5      0.09292278     299.91693      7.961374       7.29e+08       900          
    119000  -4080749.9      39689.361     -4120439.3      0.09292278     300.09818      8.9434319      7.29e+08       900          
    120000  -4080742.4      39645.082     -4120387.5      0.09292278     299.76338      6.6925393      7.29e+08       900          
    121000  -4080688.9      39675.552     -4120364.5      0.09292278     299.99377      5.3804806      7.29e+08       900          
    122000  -4080709.8      39708.691     -4120418.5      0.09292278     300.24434      6.4114965      7.29e+08       900          
    123000  -4080766.3      39694.082     -4120460.3      0.09292278     300.13388      7.5257757      7.29e+08       900          
    124000  -4080759        39672.765     -4120431.8      0.09292278     299.9727       8.5648932      7.29e+08       900          
    125000  -4080822.1      39638.997     -4120461.1      0.09292278     299.71737      6.3634412      7.29e+08       900          
    126000  -4080737        39702.496     -4120439.5      0.09292278     300.1975       7.6677917      7.29e+08       900          
    127000  -4080769.7      39660.195     -4120429.9      0.09292278     299.87765      6.0657499      7.29e+08       900          
    128000  -4080773.1      39635.635     -4120408.7      0.09292278     299.69195      6.5927337      7.29e+08       900          
    129000  -4080695.5      39691.209     -4120386.7      0.09292278     300.11215      8.0396087      7.29e+08       900          
    130000  -4080779.7      39639.034     -4120418.7      0.09292278     299.71766      6.7707236      7.29e+08       900          
    131000  -4080692.7      39743.203     -4120435.9      0.09292278     300.50529      8.9682077      7.29e+08       900          
    132000  -4080753.2      39665.741     -4120418.9      0.09292278     299.91959      5.7744294      7.29e+08       900          
    133000  -4080787.1      39657.698     -4120444.8      0.09292278     299.85878      7.0669348      7.29e+08       900          
    134000  -4080674.9      39739.54      -4120414.5      0.09292278     300.4776       6.3480643      7.29e+08       900          
    135000  -4080716.7      39700.127     -4120416.8      0.09292278     300.17959      7.3775787      7.29e+08       900          
    136000  -4080790.5      39668.009     -4120458.5      0.09292278     299.93674      7.6456475      7.29e+08       900          
    137000  -4080748.7      39701.638     -4120450.3      0.09292278     300.19102      6.4323934      7.29e+08       900          
    138000  -4080755.1      39690.79      -4120445.9      0.09292278     300.10899      6.4273765      7.29e+08       900          
    139000  -4080765.9      39687.013     -4120452.9      0.09292278     300.08043      6.3383533      7.29e+08       900          
    140000  -4080823.2      39608.666     -4120431.8      0.09292278     299.48803      7.0311163      7.29e+08       900          
    141000  -4080775.6      39652.138     -4120427.8      0.09292278     299.81674      7.155666       7.29e+08       900          
    142000  -4080688.4      39715.85      -4120404.3      0.09292278     300.29847      8.0254648      7.29e+08       900          
    143000  -4080734.6      39645.103     -4120379.7      0.09292278     299.76354      7.2255189      7.29e+08       900          
    144000  -4080757        39693.914     -4120450.9      0.09292278     300.13261      7.7099512      7.29e+08       900          
    145000  -4080772.4      39674.818     -4120447.2      0.09292278     299.98822      6.1462833      7.29e+08       900          
    146000  -4080731.1      39684.318     -4120415.4      0.09292278     300.06005      7.1404963      7.29e+08       900          
    147000  -4080728.1      39712.1       -4120440.2      0.09292278     300.27012      7.5047225      7.29e+08       900          
    148000  -4080689.5      39681.857     -4120371.3      0.09292278     300.04145      5.8022475      7.29e+08       900          
    149000  -4080713.3      39736.892     -4120450.2      0.09292278     300.45758      8.2036157      7.29e+08       900          
    150000  -4080747.3      39633.857     -4120381.1      0.09292278     299.67851      6.7236398      7.29e+08       900          
    151000  -4080816.7      39639.021     -4120455.7      0.09292278     299.71755      7.0007047      7.29e+08       900          
    152000  -4080734.6      39676.193     -4120410.8      0.09292278     299.99862      6.6644867      7.29e+08       900          
    153000  -4080741.2      39669.486     -4120410.7      0.09292278     299.94791      8.3071089      7.29e+08       900          
    154000  -4080820.8      39647.093     -4120467.9      0.09292278     299.77859      6.8222444      7.29e+08       900          
    155000  -4080791.3      39689.522     -4120480.8      0.09292278     300.0994       6.817127       7.29e+08       900          
    156000  -4080748.5      39679.815     -4120428.3      0.09292278     300.02601      8.6069416      7.29e+08       900          
    157000  -4080710.4      39727.234     -4120437.6      0.09292278     300.38455      8.2191726      7.29e+08       900          
    158000  -4080696        39741.629     -4120437.6      0.09292278     300.4934       6.3724089      7.29e+08       900          
    159000  -4080770.5      39686.959     -4120457.5      0.09292278     300.08003      6.9004759      7.29e+08       900          
    160000  -4080703.6      39705.616     -4120409.2      0.09292278     300.22109      6.1659092      7.29e+08       900          
    161000  -4080681.8      39725.366     -4120407.2      0.09292278     300.37043      6.1800294      7.29e+08       900          
    162000  -4080770.1      39681.95      -4120452.1      0.09292278     300.04215      8.9118943      7.29e+08       900          
    163000  -4080702.2      39708.348     -4120410.5      0.09292278     300.24175      6.7519425      7.29e+08       900          
    164000  -4080702.5      39707.264     -4120409.7      0.09292278     300.23355      6.5557689      7.29e+08       900          
    165000  -4080671        39746.402     -4120417.4      0.09292278     300.52948      7.0283552      7.29e+08       900          
    166000  -4080769.3      39703.686     -4120473        0.09292278     300.2065       7.408861       7.29e+08       900          
    167000  -4080743.7      39699.331     -4120443        0.09292278     300.17357      8.3470085      7.29e+08       900          
    168000  -4080668.9      39752.778     -4120421.7      0.09292278     300.57769      6.7226168      7.29e+08       900          
    169000  -4080703.1      39700.539     -4120403.7      0.09292278     300.1827       7.1167312      7.29e+08       900          
    170000  -4080810.2      39670.612     -4120480.8      0.09292278     299.95642      5.377032       7.29e+08       900          
    171000  -4080780.9      39646.923     -4120427.8      0.09292278     299.7773       7.4388438      7.29e+08       900          
    172000  -4080786.8      39669.186     -4120456        0.09292278     299.94563      8.0539849      7.29e+08       900          
    173000  -4080731        39708.207     -4120439.2      0.09292278     300.24068      8.8292205      7.29e+08       900          
    174000  -4080700.6      39733.058     -4120433.7      0.09292278     300.42859      4.5473753      7.29e+08       900          
    175000  -4080728.8      39688.439     -4120417.3      0.09292278     300.09121      6.4806367      7.29e+08       900          
    176000  -4080798        39609.13      -4120407.1      0.09292278     299.49154      7.8146049      7.29e+08       900          
    177000  -4080724.6      39677.609     -4120402.2      0.09292278     300.00932      6.9261489      7.29e+08       900          
    178000  -4080705.2      39694.184     -4120399.4      0.09292278     300.13465      9.4924693      7.29e+08       900          
    179000  -4080776.7      39655.373     -4120432.1      0.09292278     299.8412       5.4864218      7.29e+08       900          
    180000  -4080818.8      39644.661     -4120463.5      0.09292278     299.7602       5.4854881      7.29e+08       900          
    181000  -4080724        39648.441     -4120372.5      0.09292278     299.78878      7.2778697      7.29e+08       900          
    182000  -4080726.2      39659.662     -4120385.8      0.09292278     299.87362      8.5258783      7.29e+08       900          
    183000  -4080788        39632.272     -4120420.3      0.09292278     299.66652      8.0633516      7.29e+08       900          
    184000  -4080840.6      39621.339     -4120461.9      0.09292278     299.58385      6.046901       7.29e+08       900          
    185000  -4080734.7      39713.375     -4120448.1      0.09292278     300.27976      6.3868652      7.29e+08       900          
    186000  -4080731.3      39690.102     -4120421.4      0.09292278     300.10379      7.120499       7.29e+08       900          
    187000  -4080792.3      39635.38      -4120427.7      0.09292278     299.69002      8.3437093      7.29e+08       900          
    188000  -4080783.5      39691.702     -4120475.2      0.09292278     300.11588      7.7828076      7.29e+08       900          
    189000  -4080737.7      39678.386     -4120416        0.09292278     300.0152       6.7935217      7.29e+08       900          
    190000  -4080697        39691.604     -4120388.6      0.09292278     300.11514      4.7698075      7.29e+08       900          
    191000  -4080726.8      39692.794     -4120419.6      0.09292278     300.12414      5.9104616      7.29e+08       900          
    192000  -4080759.1      39675.154     -4120434.3      0.09292278     299.99077      8.7148597      7.29e+08       900          
    193000  -4080782.7      39618.023     -4120400.7      0.09292278     299.55879      9.1970063      7.29e+08       900          
    194000  -4080783.5      39689.363     -4120472.9      0.09292278     300.0982       8.1561531      7.29e+08       900          
    195000  -4080789.5      39616.713     -4120406.2      0.09292278     299.54888      5.8010277      7.29e+08       900          
    196000  -4080735.5      39706.617     -4120442.1      0.09292278     300.22866      5.6681009      7.29e+08       900          
    197000  -4080683.3      39690.687     -4120374        0.09292278     300.10821      7.0073538      7.29e+08       900          
    198000  -4080794.7      39630.77      -4120425.5      0.09292278     299.65517      10.005102      7.29e+08       900          
    199000  -4080687.9      39704.946     -4120392.9      0.09292278     300.21602      7.5985008      7.29e+08       900          
    200000  -4080755.3      39668.044     -4120423.4      0.09292278     299.93701      6.6272451      7.29e+08       900          
    200995  -4080792.4      39653.907     -4120446.3      0.09292278     299.83011      5.7434934      7.29e+08       900          
Loop time of 29312.6 on 24 procs for 150000 steps with 1023167 atoms

Performance: 0.442 ns/day, 54.283 hours/ns, 5.117 timesteps/s, 5.236 Matom-step/s
99.4% CPU use with 24 MPI tasks x 1 OpenMP threads

MPI task timing breakdown:
Section |  min time  |  avg time  |  max time  |%varavg| %total
---------------------------------------------------------------
Pair    | 16162      | 21719      | 25610      |2598.7 | 74.09
Bond    | 0.99384    | 13.59      | 33.109     | 355.7 |  0.05
Neigh   | 2060.8     | 2063.5     | 2066       |   3.1 |  7.04
Comm    | 790.52     | 4688.2     | 10210      |5565.2 | 15.99
Output  | 3.1455     | 3.4934     | 3.8614     |  11.2 |  0.01
Modify  | 437.8      | 562.77     | 675.72     | 358.9 |  1.92
Other   |            | 262.4      |            |       |  0.90

Nlocal:          42632 ave       43056 max       41856 min
Histogram: 1 0 0 2 1 3 8 5 2 2
Nghost:        43543.1 ave       58028 max       30977 min
Histogram: 8 0 0 5 2 1 0 0 0 8
Neighs:              0 ave           0 max           0 min
Histogram: 24 0 0 0 0 0 0 0 0 0

Total # of neighbors = 0
Ave neighs/atom = 0
Ave special neighs/atom = 0.23615695
Neighbor list builds = 3039
Dangerous builds = 0
System init for write_data ...
WARNING: Using a manybody potential with bonds/angles/dihedrals and special_bond exclusions (src/pair.cpp:253)
WARNING: Fix recenter should come after all other integration fixes (src/fix_recenter.cpp:130)
simulation done.
Total wall time: 10:50:29
--------------------------------------------------------------------------
A system call failed during shared memory initialization that should
not have.  It is likely that your MPI job will now either abort or
experience performance degradation.

  Local host:  siachen
  System call: unlink(2) /dev/shm/vader_segment.siachen.222530.88b70001.2
  Error:       No such file or directory (errno 2)
--------------------------------------------------------------------------
[siachen:482260] 23 more processes have sent help message help-opal-shmem-mmap.txt / sys call fail
[siachen:482260] Set MCA parameter "orte_base_help_aggregate" to 0 to see all help / error messages
